SCIP Status        : solving was interrupted [time limit reached]
Total Time         :    3600.02
  solving          :    3600.01
  presolving       :       0.11 (included in solving)
  reading          :       0.01
  copying          :       0.08 (13 #copies) (minimal 0.00, maximal 0.01, average 0.01)
Original Problem   :
  Problem name     : benchmark/block2_55_11_10_10.design
  Variables        : 1466 (55 binary, 0 integer, 0 implicit integer, 1411 continuous)
  Constraints      : 2028 initial, 2028 maximal
  Objective        : minimize, 1 non-zeros (abs.min = 1, abs.max = 1)
Presolved Problem  :
  Problem name     : t_benchmark/block2_55_11_10_10.design
  Variables        : 2128 (55 binary, 0 integer, 0 implicit integer, 2073 continuous)
  Constraints      : 2028 initial, 2030 maximal
  Objective        : minimize, 1 non-zeros (abs.min = 1, abs.max = 1)
  Nonzeros         : 6922 constraint, 0 clique table
Presolvers         :   ExecTime  SetupTime  Calls  FixedVars   AggrVars   ChgTypes  ChgBounds   AddHoles    DelCons    AddCons   ChgSides   ChgCoefs
  boundshift       :       0.00       0.00      0          0          0          0          0          0          0          0          0          0
  convertinttobin  :       0.00       0.00      0          0          0          0          0          0          0          0          0          0
  domcol           :       0.00       0.00      1          0          0          0          0          0          0          0          0          0
  dualagg          :       0.00       0.00      0          0          0          0          0          0          0          0          0          0
  dualcomp         :       0.00       0.00      1          0          0          0          0          0          0          0          0          0
  dualinfer        :       0.00       0.00      0          0          0          0          0          0          0          0          0          0
  dualsparsify     :       0.00       0.00      1          0          0          0          0          0          0          0          0          0
  gateextraction   :       0.00       0.00      0          0          0          0          0          0          0          0          0          0
  implics          :       0.00       0.00      1          0          0          0          0          0          0          0          0          0
  inttobinary      :       0.00       0.00      0          0          0          0          0          0          0          0          0          0
  qpkktref         :       0.00       0.00      0          0          0          0          0          0          0          0          0          0
  redvub           :       0.00       0.00      0          0          0          0          0          0          0          0          0          0
  sparsify         :       0.00       0.00      1          0          0          0          0          0          0          0          0          0
  stuffing         :       0.00       0.00      0          0          0          0          0          0          0          0          0          0
  trivial          :       0.00       0.00      2         45          0          0          0          0          0          0          0          0
  tworowbnd        :       0.00       0.00      0          0          0          0          0          0          0          0          0          0
  dualfix          :       0.00       0.00      2         45          0          0          0          0          0          0          0          0
  genvbounds       :       0.00       0.00      0          0          0          0          0          0          0          0          0          0
  probing          :       0.01       0.00      1          0          0          0          0          0          0          0          0          0
  pseudoobj        :       0.00       0.00      0          0          0          0          0          0          0          0          0          0
  symmetry         :       0.00       0.00      1          0          0          0          0          0          0          0          0          0
  vbounds          :       0.00       0.00      0          0          0          0          0          0          0          0          0          0
  linear           :       0.01       0.00      3          0          0          0          0          0          0          0          0          0
  nonlinear        :       0.07       0.02      4          0          0          0        100          0          0          0          0          0
  benders          :       0.00       0.00      0          0          0          0          0          0          0          0          0          0
  components       :       0.00       0.00      1          0          0          0          0          0          0          0          0          0
  root node        :          -          -      -          0          -          -       2703          -          -          -          -          -
Constraints        :     Number  MaxNumber  #Separate #Propagate    #EnfoLP    #EnfoRelax  #EnfoPS    #Check   #ResProp    Cutoffs    DomReds       Cuts    Applied      Conss   Children
  benderslp        :          0          0          0          0       5860          0          0       5005          0          0          0          0          0          0          0
  integral         :          0          0          0          0       5860          0          0       5005          0          0       7749          0          0          1      10882
  linear           :       1377+      1379         92     147076          2          0          0       4999          0         66      21263         20          0          0          0
  nonlinear        :        651        651      65344     147011         41          0          0       3199          0        148     338287    2730660    2694157          0          0
  benders          :          0          0          0          0          2          0          0          7          0          0          0          0          0          0          0
  countsols        :          0          0          0          0          2          0          0          7          0          0          0          0          0          0          0
  components       :          0          0          0          0          0          0          0          0          0          0          0          0          0          0          0
Constraint Timings :  TotalTime  SetupTime   Separate  Propagate     EnfoLP     EnfoPS     EnfoRelax   Check    ResProp    SB-Prop
  benderslp        :       0.01       0.00       0.00       0.00       0.01       0.00       0.00       0.00       0.00       0.00
  integral         :      54.71       0.00       0.00       0.00      54.71       0.00       0.00       0.00       0.00       0.00
  linear           :       3.84       0.00       0.00       3.50       0.00       0.00       0.00       0.31       0.00       0.03
  nonlinear        :      99.67       0.02      75.45      21.83       0.05       0.00       0.00       1.90       0.00       0.42
  benders          :       0.00       0.00       0.00       0.00       0.00       0.00       0.00       0.00       0.00       0.00
  countsols        :       0.00       0.00       0.00       0.00       0.00       0.00       0.00       0.00       0.00       0.00
  components       :       0.02       0.00       0.00       0.02       0.00       0.00       0.00       0.00       0.00       0.00
Propagators        : #Propagate   #ResProp    Cutoffs    DomReds
  dualfix          :          3          0          0          0
  genvbounds       :          0          0          0          0
  nlobbt           :          0          0          0          0
  obbt             :          0          0          0          0
  probing          :          0          0          0          0
  pseudoobj        :      18479          0          0         10
  redcost          :      76938          0          0          9
  rootredcost      :          7          0          0       2040
  symmetry         :          0          0          0          0
  vbounds          :      36012          0          0          0
Propagator Timings :  TotalTime  SetupTime   Presolve  Propagate    ResProp    SB-Prop
  dualfix          :       0.00       0.00       0.00       0.00       0.00       0.00
  genvbounds       :       0.10       0.00       0.00       0.10       0.00       0.00
  nlobbt           :       0.00       0.00       0.00       0.00       0.00       0.00
  obbt             :       0.00       0.00       0.00       0.00       0.00       0.00
  probing          :       0.01       0.00       0.01       0.00       0.00       0.00
  pseudoobj        :       0.25       0.00       0.00       0.25       0.00       0.00
  redcost          :       1.78       0.00       0.00       1.78       0.00       0.00
  rootredcost      :       0.04       0.00       0.00       0.04       0.00       0.00
  symmetry         :       0.06       0.00       0.00       0.05       0.00       0.01
  vbounds          :       0.14       0.00       0.00       0.14       0.00       0.00
Conflict Analysis  :       Time      Calls    Success    DomReds  Conflicts   Literals    Reconvs ReconvLits   Dualrays   Nonzeros   LP Iters   (pool size: [--,--])
  propagation      :       0.00          6          0          -          0        0.0          0        0.0          -          -          -
  infeasible LP    :       0.00          0          0          -          0        0.0          0        0.0          6      243.8          0
  bound exceed. LP :       0.05         19          6          -          0        0.0          0        0.0          0        0.0        214
  strong branching :       0.00          0          0          -          0        0.0          0        0.0          -          -          0
  pseudo solution  :       0.00          0          0          -          0        0.0          0        0.0          -          -          -
  applied globally :       0.00          -          -          0          0        0.0          -          -          6          -          -
  applied locally  :          -          -          -          0          0        0.0          -          -          0          -          -
Separators         :   ExecTime  SetupTime      Calls  RootCalls    Cutoffs    DomReds  FoundCuts ViaPoolAdd  DirectAdd    Applied ViaPoolApp  DirectApp      Conss
  cut pool         :       0.00          -        334         82          -          -          6          1          -          -          -          -          -    (maximal pool size:          2)
  aggregation      :       6.88       0.00       3524         92          0          0          0          0          0          0          0          0          0
  > cmir           :          -          -          -          -          -          -          -          0          0          0          0          0          -
  > flowcover      :          -          -          -          -          -          -          -          0          0          0          0          0          -
  > knapsackcover  :          -          -          -          -          -          -          -          0          0          0          0          0          -
  cgmip            :       0.00       0.00          0          0          0          0          0          0          0          0          0          0          0
  clique           :       0.00       0.00          1          1          0          0          0          0          0          0          0          0          0
  closecuts        :       0.00       0.00          0          0          0          0          0          0          0          0          0          0          0
  convexproj       :       0.00       0.00          0          0          0          0          0          0          0          0          0          0          0
  disjunctive      :       0.00       0.00          0          0          0          0          0          0          0          0          0          0          0
  eccuts           :       0.00       0.00          0          0          0          0          0          0          0          0          0          0          0
  gauge            :       0.00       0.00          0          0          0          0          0          0          0          0          0          0          0
  gomory           :       1.60       0.00       1402         10          0          0          6          1          0          0          0          0          0
  > gomorymi       :          -          -          -          -          -          -          -          1          0          0          0          0          -
  > strongcg       :          -          -          -          -          -          -          -          0          0          0          0          0          -
  impliedbounds    :       0.21       0.00       3524         92          0          0          0          0          0          0          0          0          0
  interminor       :       0.00       0.00          0          0          0          0          0          0          0          0          0          0          0
  intobj           :       0.00       0.00          0          0          0          0          0          0          0          0          0          0          0
  mcf              :       0.00       0.00          3          3          0          0          0          0          0          0          0          0          0
  minor            :       0.02       0.00          0          0          0          0          0          0          0          0          0          0          0
  mixing           :       0.21       0.00       3524         92          0          0          0          0          0          0          0          0          0
  oddcycle         :       0.00       0.00          0          0          0          0          0          0          0          0          0          0          0
  rapidlearning    :       0.00       0.00          0          0          0          0          0          0          0          0          0          0          0
  rlt              :       0.00       0.00         10         10          0          0          0          0          0          0          0          0          0
  zerohalf         :       0.73       0.00       1412         20          0          0          0          0          0          0          0          0          0
Cutselectors       :   ExecTime  SetupTime      Calls  RootCalls   Selected     Forced   Filtered  RootSelec   RootForc   RootFilt 
  hybrid           :       2.93       0.00      65332         92    2693465          0      36524       5884          0        362
Pricers            :   ExecTime  SetupTime      Calls       Vars
  problem variables:       0.00          -          0          0
Branching Rules    :   ExecTime  SetupTime   BranchLP  BranchExt   BranchPS    Cutoffs    DomReds       Cuts      Conss   Children
  allfullstrong    :       0.00       0.00          0          0          0          0          0          0          0          0
  cloud            :       0.00       0.00          0          0          0          0          0          0          0          0
  distribution     :       0.00       0.00          0          0          0          0          0          0          0          0
  fullstrong       :       0.00       0.00          0          0          0          0          0          0          0          0
  inference        :       0.00       0.00          0          0          0          0          0          0          0          0
  leastinf         :       0.00       0.00          0          0          0          0          0          0          0          0
  lookahead        :       0.00       0.00          0          0          0          0          0          0          0          0
  mostinf          :       0.00       0.00          0          0          0          0          0          0          0          0
  multaggr         :       0.00       0.00          0          0          0          0          0          0          0          0
  nodereopt        :       0.00       0.00          0          0          0          0          0          0          0          0
  pscost           :       0.00       0.00          0          0          0          0          0          0          0          0
  random           :       0.00       0.00          0          0          0          0          0          0          0          0
  relpscost        :      54.71       0.00       5819          0          0          0       7749          0          1      10882
  vanillafullstrong:       0.00       0.00          0          0          0          0          0          0          0          0
Primal Heuristics  :   ExecTime  SetupTime      Calls      Found       Best
  LP solutions     :       0.00          -          -          2          2
  relax solutions  :       0.00          -          -          0          0
  pseudo solutions :       0.00          -          -          0          0
  strong branching :       0.01          -          -          0          0
  actconsdiving    :       0.00       0.00          0          0          0
  adaptivediving   :       5.25       0.00         42          0          0
  alns             :       4.78       0.00          6          1          1
  bound            :       0.00       0.00          0          0          0
  clique           :       0.00       0.00          0          0          0
  coefdiving       :       0.00       0.00          0          0          0
  completesol      :       0.00       0.00          0          0          0
  conflictdiving   :      30.29       0.00        165          0          0
  crossover        :      13.38       0.00          1          1          1
  dins             :       0.00       0.00          0          0          0
  distributiondivin:      78.55       0.00        174          0          0
  dps              :       0.00       0.00          0          0          0
  dualval          :       0.00       0.00          0          0          0
  farkasdiving     :       0.00       0.00          0          0          0
  feaspump         :      34.80       0.00         48          0          0
  fixandinfer      :       0.00       0.00          0          0          0
  fracdiving       :      31.01       0.00        174          0          0
  gins             :       0.00       0.00          0          0          0
  guideddiving     :      31.18       0.00        173          0          0
  indicator        :       0.04       0.00          0          0          0
  indicatordiving  :       0.00       0.00          0          0          0
  intdiving        :       0.00       0.00          0          0          0
  intshifting      :       0.97       0.00         15          0          0
  linesearchdiving :      24.50       0.00        174          0          0
  localbranching   :       0.00       0.00          0          0          0
  locks            :       0.02       0.00          1          0          0
  lpface           :       0.00       0.00          0          0          0
  mpec             :       8.66       0.00          1          0          0
  multistart       :       0.00       0.00          0          0          0
  mutation         :       0.00       0.00          0          0          0
  nlpdiving        :       4.33       0.00          6          0          0
  objpscostdiving  :      65.56       0.00         43          0          0
  octane           :       0.00       0.00          0          0          0
  ofins            :       0.00       0.00          0          0          0
  oneopt           :       0.01       0.00          8          0          0
  padm             :       0.00       0.00          0          0          0
  proximity        :       0.00       0.00          0          0          0
  pscostdiving     :      39.49       0.00        173          0          0
  randrounding     :       1.25       0.00       2351          0          0
  rens             :       0.00       0.00          0          0          0
  reoptsols        :       0.00       0.00          0          0          0
  repair           :       0.00       0.00          0          0          0
  rins             :       7.99       0.00          6          0          0
  rootsoldiving    :      18.00       0.00         56          0          0
  rounding         :       0.95       0.00       3669          0          0
  shiftandpropagate:       0.01       0.00          1          0          0
  shifting         :       1.28       0.00        937          0          0
  simplerounding   :       0.07       0.00          0          0          0
  subnlp           :       4.34       0.00         13          4          4
  trivial          :       0.01       0.00          2          0          0
  trivialnegation  :       0.00       0.00          0          0          0
  trustregion      :       0.00       0.00          0          0          0
  trysol           :       0.01       0.00          0          0          0
  twoopt           :       0.00       0.00          0          0          0
  undercover       :       0.13       0.00          1          0          0
  vbounds          :       0.00       0.00          0          0          0
  veclendiving     :      13.25       0.00        174          0          0
  zeroobj          :       0.00       0.00          0          0          0
  zirounding       :       0.11       0.00       1000          0          0
  other solutions  :          -          -          -          0          -
Diving (single)    :      Calls      Nodes   LP Iters Backtracks  Conflicts   MinDepth   MaxDepth   AvgDepth  RoundSols  NLeafSols  MinSolDpt  MaxSolDpt  AvgSolDpt
  actconsdiving    :          0          -          -          -          -          -          -          -          -          -          -          -          -
  coefdiving       :          0          -          -          -          -          -          -          -          -          -          -          -          -
  conflictdiving   :        165       5124     176914          4          3         31         55       46.6          0          -          -          -          -
  distributiondivin:        174       3558     163007          0          0         14         55       37.3          0          -          -          -          -
  farkasdiving     :          0          -          -          -          -          -          -          -          -          -          -          -          -
  fracdiving       :        174       6419     182957          0          1         48         55       53.5          0          -          -          -          -
  guideddiving     :        173       5988     188107          1          1         39         55       51.5          0          -          -          -          -
  indicatordiving  :          0          -          -          -          -          -          -          -          -          -          -          -          -
  linesearchdiving :        174       4588     148421          0          0         34         52       43.3          0          -          -          -          -
  pscostdiving     :        173       6415     232601          0          0         49         55       54.1          0          -          -          -          -
  veclendiving     :        174        787      87593          0          0         14         30       21.5          0          -          -          -          -
Diving (adaptive)  :      Calls      Nodes   LP Iters Backtracks  Conflicts   MinDepth   MaxDepth   AvgDepth  RoundSols  NLeafSols  MinSolDpt  MaxSolDpt  AvgSolDpt
  actconsdiving    :          8         42       4395          0          0         15         25       20.4          0          -          -          -          -
  coefdiving       :          5         26       2769          0          0         11         25       20.2          0          -          -          -          -
  conflictdiving   :          0          -          -          -          -          -          -          -          -          -          -          -          -
  distributiondivin:          0          -          -          -          -          -          -          -          -          -          -          -          -
  farkasdiving     :          0          -          -          -          -          -          -          -          -          -          -          -          -
  fracdiving       :          7        261       7700          0          0         51         55       53.4          0          -          -          -          -
  guideddiving     :          6        213       5795          0          0         51         55       52.5          0          -          -          -          -
  indicatordiving  :          0          -          -          -          -          -          -          -          -          -          -          -          -
  linesearchdiving :          3         74       2069          0          0         43         46       44.7          0          -          -          -          -
  pscostdiving     :          4        142       5292          0          0         54         55       54.8          0          -          -          -          -
  veclendiving     :          9         40       4604          0          0         16         33       21.9          0          -          -          -          -
Neighborhoods      :      Calls  SetupTime  SolveTime SolveNodes       Sols       Best       Exp3  EpsGreedy        UCB TgtFixRate  Opt  Inf Node Stal  Sol  Usr Othr Actv
  rens             :          1       0.02       0.69          1          0          0    0.00000   -1.00000    1.00000      0.700    0    1    0    0    0    0    0    1
  rins             :          1       0.01       0.91         37          1          1    0.00000   -1.00000    1.00000      0.700    1    0    0    0    0    0    0    1
  mutation         :          1       0.02       1.76          1          0          0    0.00000   -1.00000    1.00000      0.700    0    1    0    0    0    0    0    1
  localbranching   :          0       0.00       0.00          0          0          0    0.00000   -1.00000    1.00000      0.900    0    0    0    0    0    0    0    1
  crossover        :          1       0.01       0.56         25          0          0    0.00000   -1.00000    1.00000      0.700    0    1    0    0    0    0    0    1
  proximity        :          1       0.01       0.73         55          0          0    0.00000   -1.00000    1.00000      0.900    0    0    0    1    0    0    0    1
  zeroobjective    :          1       0.01       0.00          0          0          0    0.00000   -1.00000    1.00000      0.900    0    0    0    0    0    0    1    1
  dins             :          0       0.00       0.00          0          0          0    0.00000   -1.00000    1.00000      0.900    0    0    0    0    0    0    0    1
  trustregion      :          0       0.00       0.00          0          0          0    0.00000   -1.00000    1.00000      0.900    0    0    0    0    0    0    0    0
Expressions        :   #IntEval  IntEvalTi   #RevProp  RevPropTi    DomReds    Cutoffs  #Estimate  EstimTime  Branching  #Simplify SimplifyTi Simplified
  pow              :    3314434       1.15    1048355       0.45    1887077          0       1293       0.00          0       1420       0.00          0
  prod             :    2742954       1.07      21035       0.10        131          0          0       0.00          0       1102       0.00        550
  sum              :    3140230       1.03    1795734       0.69     189709         41        101       0.00          0       1402       0.00        101
  var              :    7692877       1.86          0       0.00          0          0          0       0.00          0       3821       0.01          0
  varidx           :          0       0.00          0       0.00          0          0          0       0.00          0          0       0.00          0
Nonlinear Conshdlr :   WeakSepa  TightenLP DespTghtLP DespBranch DespCutoff    ForceLP  CanonTime
  enforce          :        568          0          0          0          0          0
  presolve         :                                                                         0.06
Nlhdlrs            :    Detects  DetectAll DetectTime   #IntEval  IntEvalTi   #RevProp  RevPropTi    DomReds    Cutoffs   #Enforce   EnfoTime       Cuts  Branching
  soc              :        550        550       0.00          0       0.00          0       0.00          0          0    8165188      20.43    2664162          0
  convex           :          1          1       0.00          0       0.00          0       0.00          0          0      65306       0.44      65305          0
  concave          :          0          0       0.00          0       0.00          0       0.00          0          0          0       0.00          0          0
  quotient         :          0          0       0.00          0       0.00          0       0.00          0          0          0       0.00          0          0
  quadratic        :          0          0       0.00          0       0.00          0       0.00          0          0          0       0.00          0          0
  default          :       3228      16140       0.00    9194872       7.09    2869222       6.33    2076917         41       1394       0.01       1193          0
  bilinear         :          0          0       0.00          0       0.00          0       0.00          0          0          0       0.00          0          0
  perspective      :          0          0       0.00          0       0.00          0       0.00          0          0          0       0.00          0          0
LP                 :       Time      Calls Iterations  Iter/call   Iter/sec  Time-0-It Calls-0-It    ItLimit
  primal LP        :     400.48       8419          0       0.00       0.00     400.42       8419
  dual LP          :    2537.72      71224   13071275     184.55    5150.79       0.33        395
  lex dual LP      :       0.00          0          0       0.00          -
  barrier LP       :       0.00          0          0       0.00          -       0.00          0
  resolve instable :       0.02          1         23      23.00    1150.00
  diving/probing LP:     283.51       8558    1605848     187.64    5664.17
  strong branching :      47.20        821     268543     327.09    5689.47          -          -        236
    (at root node) :          -         42       1532      36.48          -
  conflict analysis:       0.02         23        214       9.30   10700.00
NLP relaxation     :
  solve time       :       4.30 (10 calls)
  convexity        :  nonconvex (77 linear rows, 101 convex ineq., 550 nonconvex ineq., 0 nonlinear eq. or two-sided ineq.)
NLP Solvers        :  #Problems  ProblemTi    #Solves  SolveTime      #Iter  Time/Iter      #Okay #TimeLimit #IterLimit #LObjLimit #Interrupt  #NumError #EvalError  #OutOfMem #LicenseEr #OtherTerm   #GlobOpt    #LocOpt  #Feasible #LocInfeas #GlobInfea #Unbounded   #Unknown
  ipopt            :         15       2.53         24      16.53       1432       0.01         18          0          6          0          0          0          0          0          0          0          0          8          3          4          0          0          9
B&B Tree           :
  number of runs   :          1
  nodes            :       5453 (5441 internal, 12 leaves)
  feasible leaves  :          2
  infeas. leaves   :          0
  objective leaves :          9
  nodes (total)    :       5453 (5441 internal, 12 leaves)
  nodes left       :       5431
  max depth        :         32
  max depth (total):         32
  backtracks       :       1415 (25.9%)
  early backtracks :          0 (0.0%)
  nodes exc. ref.  :          0 (0.0%)
  delayed cutoffs  :          0
  repropagations   :          6 (260 domain reductions, 0 cutoffs)
  avg switch length:       7.15
  switching time   :     248.94
Estim. Tree Size   :      10904
Estimation Tree    : 10883 nodes (5452 visited, 5441 internal, 11 leaves, 5431 open), weight: 0.0000 completed 0.0190
Estimations        :      estim      value      trend resolution     smooth
  wbe              :    6309379          -          -          -          -
  tree-profile     :         -1          -          -          -          -
  gap              :         27    0.66031    0.11492          1         26
  tree-weight      :      10904    0.00000    0.00000          1       9942
  leaf-frequency   :      10904    0.00193   -0.00062          1       9824
  ssg              :        126    0.96996   -0.01842          1        120
  open-nodes       :      10904 5431.00000  660.77801          1       9942
Root Node          :
  First LP value   : -1.87488165749254e+00
  First LP Iters   :       2177 (54425.00 Iter/sec)
  First LP Time    :       0.04
  Final Dual Bound : -1.57379641067550e+00
  Final Root Iters :      16396
  Root LP Estimate : -1.34379310723842e+00
Solution           :
  Solutions found  :          8 (8 improvements)
  First Solution   : -2.85171200731809e-01   (in run 1, after 1 nodes, 0.61 seconds, depth 0, found by <randrounding>)
  Gap First Sol.   :     557.46 %
  Gap Last Sol.    :      51.61 %
  Primal Bound     : -1.00001500006824e+00   (in run 1, after 4059 nodes, 2624.70 seconds, depth 26, found by <relaxation>)
  Dual Bound       : -1.51447191121862e+00
  Gap              :      51.44 %
Integrals          :      Total       Avg%
  primal-dual      :  134894.21      37.47
  primal-ref       :          -          - (not evaluated)
  dual-ref         :          -          - (not evaluated)
